qe/outputs/qe/cbrdelay_obs_newl/T=5,eliminate=[I_0,I_1,I_2,I_3,I_4,C,B,lhs=L_4],pl=4.smt2
; benchmark generated from python API
(set-info :status unknown)
(declare-fun L_0 () Real)
(declare-fun S_0 () Real)
(declare-fun A_0 () Real)
(declare-fun L_1 () Real)
(declare-fun S_1 () Real)
(declare-fun A_1 () Real)
(declare-fun S_3 () Real)
(declare-fun A_3 () Real)
(declare-fun L_2 () Real)
(declare-fun L_4 () Real)
(declare-fun S_2 () Real)
(declare-fun A_4 () Real)
(declare-fun A_2 () Real)
(declare-fun S_4 () Real)
(assert
 (let (($x34 (>= L_0 0.0)))
 (let ((?x1285 (* 3.0 L_4)))
 (let ((?x1014 (* (- 1.0) S_0)))
 (let ((?x1284 (* (- 3.0) A_4)))
 (let ((?x1270 (* 3.0 A_3)))
 (let ((?x3508 (* (- 3.0) L_2)))
 (let (($x463 (= L_4 L_2)))
 (let ((?x1272 (* 2.0 L_4)))
 (let ((?x334 (* (- 1.0) S_1)))
 (let ((?x1271 (* (- 2.0) A_4)))
 (let ((?x1142 (* 2.0 A_3)))
 (let ((?x994 (* (- 2.0) L_2)))
 (let (($x18934 (or $x463 (<= (+ (* (- 4.0) L_2) (* 4.0 A_3) ?x1284 ?x334 ?x1285) (- 15.0)))))
 (let ((?x1297 (* 4.0 L_4)))
 (let ((?x1296 (* (- 4.0) A_4)))
 (let ((?x1295 (* 5.0 A_3)))
 (let ((?x12118 (* (- 5.0) L_2)))
 (let ((?x360 (* (- 1.0) A_1)))
 (let ((?x368 (* (- 1.0) A_4)))
 (let ((?x252 (* (- 1.0) L_2)))
 (let ((?x1035 (* (- 1.0) A_0)))
 (let ((?x1283 (* 4.0 A_3)))
 (let ((?x419 (* (- 4.0) L_2)))
 (let (($x13100 (<= (+ ?x252 A_3 ?x368 (* (/ 1.0 2.0) S_1) (* (- (/ 1.0 2.0)) S_0) L_4) (- 5.0))))
 (let ((?x2096 (* (/ 2.0 3.0) S_0)))
 (let ((?x340 (* (- 1.0) S_2)))
 (let ((?x2095 (* (/ 1.0 3.0) A_3)))
 (let ((?x11741 (* (- (/ 1.0 3.0)) L_2)))
 (let (($x1839 (<= (+ A_1 ?x340 (* (- 1.0) L_1)) 0.0)))
 (let (($x51 (= L_1 L_0)))
 (let (($x19022 (or $x51 (<= (+ L_2 (* (- 1.0) A_3) S_4 ?x360 S_0 L_1) (- 5.0)))))
 (let ((?x5266 (* (/ 2.0 3.0) L_4)))
 (let ((?x5265 (* (- (/ 2.0 3.0)) L_1)))
 (let ((?x5264 (* (/ 2.0 3.0) A_1)))
 (let ((?x5263 (* (- (/ 2.0 3.0)) A_4)))
 (let ((?x235 (* (- 1.0) L_1)))
 (let ((?x362 (* (- 1.0) A_2)))
 (let (($x12985 (<= (+ ?x994 ?x1142 ?x1271 (* 2.0 A_1) ?x340 ?x1014 (* (- 2.0) L_1) ?x1272) 0.0)))
 (let (($x12718 (<= (+ (* (/ 1.0 3.0) L_2) (* (/ 2.0 3.0) A_3) ?x362 (* (/ 1.0 3.0) S_0)) (- 5.0))))
 (let (($x61 (= L_2 L_1)))
 (let (($x12891 (or $x61 (<= (+ L_2 A_3 (* (- 2.0) A_2) A_1 ?x235) (- 10.0)) $x12718)))
 (let (($x12887 (or $x61 (<= (+ ?x362 (* (/ 3.0 2.0) S_1) (* (- (/ 1.0 2.0)) S_0) L_2) (- 5.0)))))
 (let ((?x3925 (* (/ 3.0 2.0) L_4)))
 (let ((?x1576 (* (- (/ 1.0 2.0)) S_0)))
 (let ((?x1567 (* (/ 1.0 2.0) A_2)))
 (let ((?x3905 (* (- (/ 3.0 2.0)) A_4)))
 (let ((?x5847 (* (/ 3.0 2.0) A_3)))
 (let ((?x3881 (* (/ 1.0 2.0) L_4)))
 (let ((?x4719 (* (/ 1.0 2.0) S_2)))
 (let ((?x3923 (* (- (/ 1.0 2.0)) A_4)))
 (let ((?x5866 (* (/ 1.0 2.0) A_3)))
 (let ((?x1547 (* (- (/ 1.0 2.0)) L_2)))
 (let (($x12806 (<= (+ ?x1547 ?x5866 ?x3923 (* (- (/ 1.0 2.0)) A_1) ?x4719 (* (/ 1.0 2.0) L_1) ?x3881) (- 5.0))))
 (let ((?x1278 (* (- 2.0) L_4)))
 (let ((?x997 (* (- 2.0) A_2)))
 (let ((?x1277 (* 2.0 A_4)))
 (let ((?x1060 (* (- 2.0) A_3)))
 (let ((?x3578 (* 4.0 L_2)))
 (let ((?x494 (+ ?x994 A_3 ?x368 A_2 ?x360 L_1 L_4)))
 (let (($x11534 (<= 0.0 ?x494)))
 (let ((?x365 (* (- 1.0) A_3)))
 (let ((?x12050 (+ (* (/ 5.0 2.0) L_2) ?x365 (* (/ 3.0 2.0) A_4) (* (- (/ 3.0 2.0)) A_2) S_0 (* (- (/ 3.0 2.0)) L_4))))
 (let ((?x998 (* 2.0 L_2)))
 (let ((?x1015 (* (- 2.0) L_1)))
 (let ((?x1013 (* 2.0 A_1)))
 (let (($x18725 (or $x61 (<= (+ ?x998 ?x365 S_4 ?x362 A_1 ?x235) (- 5.0)) (<= (+ (* 3.0 L_2) ?x1060 (* 2.0 S_4) ?x362 S_0) (- 5.0)))))
 (let (($x12206 (<= (+ ?x252 A_3 ?x5263 (* (- (/ 1.0 3.0)) A_1) (* (/ 1.0 3.0) L_1) ?x5266) (- 5.0))))
 (let ((?x3577 (* (- 4.0) L_1)))
 (let ((?x3576 (* 4.0 A_1)))
 (let ((?x3575 (* (- 4.0) A_2)))
 (let ((?x1022 (* 3.0 L_2)))
 (let ((?x1931 (* (- 3.0) L_1)))
 (let ((?x1930 (* 3.0 A_1)))
 (let ((?x1021 (* (- 3.0) A_2)))
 (let (($x12447 (or $x61 (<= (+ (* (/ 1.0 2.0) L_2) ?x5866 ?x362 (* (/ 1.0 2.0) S_1)) (- 5.0)))))
 (let (($x19553 (or $x61 $x11534 (<= (+ ?x1022 ?x1060 S_4 A_4 ?x362 S_0 (* (- 1.0) L_4)) 0.0))))
 (let (($x12210 (or $x61 $x463 (<= (+ ?x1547 A_3 ?x3923 (* (- (/ 1.0 2.0)) A_2) ?x3881) (- 5.0)))))
 (let (($x497 (<= (+ ?x1022 ?x365 A_4 ?x997 A_1 S_2 ?x235 (* (- 1.0) L_4)) 0.0)))
 (let (($x19637 (or $x61 (<= (+ ?x998 ?x365 A_4 ?x362 S_1 (* (- 1.0) L_4)) 0.0))))
 (let (($x18919 (or $x463 (<= (+ ?x252 A_3 ?x368 A_1 ?x1035 ?x235 L_4 L_0) 0.0))))
 (let (($x19626 (or $x51 (<= (+ A_2 (* (- 2.0) A_1) S_0 (* 2.0 L_1) ?x252) (- 5.0)))))
 (let (($x18731 (or $x61 (<= (+ A_4 ?x1021 ?x1013 ?x1015 ?x1022 (* (- 1.0) L_4)) 0.0))))
 (let (($x18994 (or $x51 (<= (+ L_2 ?x365 A_4 ?x360 S_0 L_1 (* (- 1.0) L_4)) 0.0))))
 (let (($x117 (>= S_4 S_3)))
 (let (($x108 (>= S_1 S_0)))
 (let (($x111 (>= S_2 S_1)))
 (let (($x119 (>= A_1 A_0)))
 (let (($x120 (>= A_2 A_1)))
 (let (($x121 (>= A_3 A_2)))
 (and (<= (+ A_3 ?x252) S_3) $x121 $x120 $x119 $x111 $x108 $x117 (or $x51 (not (<= 0.0 (+ ?x235 L_0)))) (or $x463 (<= (+ ?x994 A_3 ?x368 A_2 ?x340 L_4) 0.0)) (or $x61 (not (<= 0.0 (+ L_1 ?x252)))) $x18994 (<= (+ S_4 ?x368 L_4) 0.0) $x18731 (or $x463 (<= (+ ?x252 A_3 ?x368 A_1 ?x334 ?x235 L_4) 0.0)) (or $x51 (<= (+ ?x360 S_1 L_1) (- 5.0))) $x19626 (or $x51 (<= (+ A_2 ?x360 ?x340 S_0 L_1 ?x252) 0.0)) (or (not (<= 0.0 (+ L_2 (* (- 1.0) L_4)))) $x463) (or $x61 (<= (+ ?x362 S_2 L_2) (- 5.0))) (or $x463 (<= (+ S_4 ?x368 L_4) (- 5.0))) (or $x463 (<= (+ S_4 ?x368 A_1 ?x340 ?x235 L_4) 0.0)) (or $x463 (<= (+ ?x252 A_3 ?x368 L_4) (- 10.0))) (or $x51 $x463 (<= ?x494 (- 5.0))) $x18919 (or $x61 (<= (+ ?x998 A_3 ?x1021 ?x1930 ?x1035 ?x1931 L_0) 0.0)) (or $x61 (<= (+ L_2 A_3 ?x997 A_1 ?x235) (- 5.0))) (or $x61 (<= (+ ?x998 ?x365 S_4 ?x362 A_1 ?x235) 0.0)) $x19637 (or $x61 $x497) (or $x61 $x463 (<= (+ A_3 ?x368 ?x362 ?x1013 ?x1014 ?x1015 L_4) 0.0)) (or $x61 (<= (+ ?x362 A_1 ?x1035 S_1 ?x235 L_2 L_0) 0.0)) (or $x61 (<= (+ ?x997 ?x1013 S_1 ?x1014 ?x1015 ?x998) 0.0)) (or $x61 (<= (+ ?x997 ?x1013 ?x1035 S_2 ?x1015 ?x998 L_0) 0.0)) (or $x61 (<= (+ ?x1021 ?x1930 S_2 ?x1014 ?x1931 ?x1022) 0.0)) (or $x51 (<= (+ ?x360 ?x4719 (* (/ 1.0 2.0) S_0) L_1) (- 5.0))) (or $x61 (<= (+ L_2 A_3 ?x997 ?x1013 ?x340 ?x1015) 0.0)) $x12210 (or $x463 (<= (+ ?x3508 ?x1142 ?x1271 A_2 ?x1035 ?x1272 L_0) (- 5.0))) $x19553 (or $x463 (<= (+ A_3 ?x368 A_2 ?x360 L_1 ?x994 L_4) 0.0)) (or $x1839 (<= (+ ?x340 S_0) (- 5.0))) (or $x1839 (<= (+ L_2 ?x365 S_4 ?x340 S_0) 0.0)) $x12447 (or $x61 (<= (+ ?x998 A_3 ?x1021 ?x1930 ?x334 ?x1931) 0.0)) (<= (+ ?x362 S_2 L_2) 0.0) (or $x1839 (<= (+ A_3 ?x362 ?x340 S_0) 0.0)) (or $x51 (<= (+ ?x360 S_0 L_1) (- 10.0))) (or $x61 (<= (+ ?x1022 A_3 ?x3575 ?x3576 ?x1014 ?x3577) 0.0)) (or $x61 (<= (+ ?x362 ?x1035 (* 2.0 S_1) L_2 L_0) (- 5.0))) (or $x51 $x463 $x12206) (or $x61 (<= (+ ?x998 ?x365 S_4 ?x362 S_1) (- 5.0))) $x18725 (or $x61 (<= (+ ?x997 ?x1013 S_2 ?x334 ?x1015 ?x998) 0.0)) (or $x61 $x11534 (<= ?x12050 0.0)) (or $x61 $x11534 (<= (+ ?x3578 ?x1060 ?x1277 ?x997 S_2 S_0 ?x1278) 0.0)) (or $x463 (<= (+ ?x3508 ?x1142 ?x1271 A_2 ?x334 ?x1272) (- 5.0))) (or $x51 $x463 $x12806) (or $x463 (<= (+ ?x994 ?x5847 ?x3905 ?x1567 ?x1576 ?x3925) (- 5.0))) $x12887 $x12891 (or $x463 (<= (+ ?x994 ?x1142 ?x1271 A_1 ?x1014 ?x235 ?x1272) (- 5.0))) (or $x463 $x12985) (or $x463 (<= (+ ?x252 A_3 ?x368 A_1 ?x340 ?x235 L_4) (- 5.0))) (or $x463 (<= (+ ?x252 ?x1142 ?x368 ?x362 A_1 ?x340 ?x235 L_4) 0.0)) (or $x463 (<= (+ ?x252 ?x1142 ?x368 ?x362 L_4) (- 5.0))) (or $x463 (<= (+ ?x252 A_3 ?x5263 ?x5264 ?x340 ?x5265 ?x5266) 0.0)) $x19022 (or $x51 (<= (+ A_3 ?x362 ?x360 S_0 L_1) (- 5.0))) (or $x51 (<= (+ ?x11741 ?x2095 ?x360 ?x2096 L_1) (- 5.0))) (or $x1839 (<= (+ ?x11741 ?x2095 ?x340 ?x2096) 0.0)) (or $x463 (<= (+ ?x252 A_3 ?x368 ?x1035 S_1 L_4 L_0) (- 5.0))) (or $x463 $x13100) (or $x463 (<= (+ ?x994 ?x1142 ?x1271 ?x1035 S_2 ?x1272 L_0) (- 10.0))) (or $x463 (<= (+ ?x419 ?x1283 ?x1284 ?x1035 ?x1285 L_0) (- 15.0))) (or $x463 (<= (+ ?x3508 ?x1270 ?x1271 ?x360 L_1 ?x1272) (- 10.0))) (or $x463 (<= (+ ?x3508 ?x1270 ?x1271 ?x340 ?x1272) (- 10.0))) (or $x463 (<= (+ ?x252 A_3 ?x368 ?x360 S_2 L_1 L_4) (- 5.0))) (or $x463 (<= (+ ?x12118 ?x1295 ?x1296 ?x1014 ?x1297) (- 20.0))) $x18934 (or $x463 (<= (+ ?x994 ?x1142 ?x1271 S_2 ?x334 ?x1272) (- 10.0))) (or $x463 (<= (+ ?x3508 ?x1270 ?x1284 S_2 ?x1014 ?x1285) (- 15.0))) $x34 (<= (+ L_2 ?x365 S_3) 0.0) (<= (+ ?x360 S_1 L_1) 0.0) (<= (+ ?x1035 S_0 L_0) 0.0))))))))))))))))))))))))))))))))))))))))))))))))))))))))))))))))))))))))))))))))))))))))))))
(check-sat)
